[669, 689, 681, 649, 657, 676, 670, 659, 668, 655, 1330, 1330, 1349, 1363, 1360, 1301, 1309, 1326, 1325, 1351, 2636, 2647, 2636, 2658, 2635, 2699, 2617, 2689, 2664, 2673, 5333, 5376, 5320, 5303, 5402, 5349, 5342, 5294, 5313, 5312, 10609, 10621, 10664, 10559, 10585, 10584, 10657, 10657, 10665, 10586]
